problem_generation/data/GISP/train/er_n=60_m=1063_p=0.60_SET2_setparam=100.00_alpha=0.50_778.lp
maximize
OBJ:100x0 + 100x1 + 100x2 + 100x3 + 100x4 + 100x5 + 100x6 + 100x7 + 100x8 + 100x9 + 100x10 + 100x11 + 100x12 + 100x13 + 100x14 + 100x15 + 100x16 + 100x17 + 100x18 + 100x19 + 100x20 + 100x21 + 100x22 + 100x23 + 100x24 + 100x25 + 100x26 + 100x27 + 100x28 + 100x29 + 100x30 + 100x31 + 100x32 + 100x33 + 100x34 + 100x35 + 100x36 + 100x37 + 100x38 + 100x39 + 100x40 + 100x41 + 100x42 + 100x43 + 100x44 + 100x45 + 100x46 + 100x47 + 100x48 + 100x49 + 100x50 + 100x51 + 100x52 + 100x53 + 100x54 + 100x55 + 100x56 + 100x57 + 100x58 + 100x59 - y26_30 - y26_39 - y17_58 - y7_35 - y29_32 - y40_41 - y21_46 - y40_59 - y21_55 - y41_42 - y33_38 - y2_32 - y44_56 - y25_52 - y2_59 - y22_37 - y14_33 - y36_48 - y15_25 - y17_44 - y7_21 - y47_57 - y6_34 - y29_36 - y48_49 - y21_32 - y29_45 - y40_45 - y6_52 - y10_22 - y25_38 - y10_49 - y25_47 - y22_32 - y14_37 - y16_56 - y36_43 - y28_39 - y36_52 - y47_52 - y5_55 - y9_53 - y6_38 - y48_53 - y21_45 - y40_58 - y10_44 - y2_49 - y3_14 - y32_50 - y22_27 - y24_46 - y14_23 - y32_59 - y13_55 - y24_55 - y36_38 - y28_34 - y7_11 - y9_30 - y28_43 - y47_56 - y6_15 - y9_48 - y5_59 - y40_44 - y21_40 - y21_49 - y10_12 - y20_53 - y54_55 - y10_30 - y2_26 - y23_58 - y2_35 - y3_9 - y51_58 - y1_57 - y5_27 - y28_29 - y36_42 - y5_36 - y17_38 - y28_38 - y47_51 - y28_47 - y6_10 - y9_43 - y9_52 - y6_28 - y29_30 - y6_37 - y21_35 - y39_43 - y20_39 - y2_12 - y10_25 - y12_44 - y2_21 - y24_27 - y3_4 - y1_34 - y16_41 - y1_52 - y35_54 - y5_22 - y9_20 - y5_31 - y9_29 - y5_49 - y9_47 - y6_23 - y42_44 - y21_30 - y0_56 - y11_56 - y10_11 - y20_43 - y2_7 - y2_16 - y20_52 - y12_48 - y23_57 - y16_18 - y32_44 - y43_44 - y13_40 - y35_40 - y13_49 - y16_45 - y1_56 - y17_19 - y9_15 - y38_51 - y5_26 - y5_44 - y42_48 - y27_59 - y20_38 - y31_38 - y39_51 - y20_47 - y4_30 - y12_43 - y12_52 - y4_57 - y16_22 - y34_58 - y16_31 - y24_44 - y16_49 - y57_59 - y27_36 - y27_45 - y19_41 - y0_46 - y11_46 - y0_55 - y4_25 - y20_51 - y4_34 - y12_47 - y23_56 - y1_19 - y45_53 - y1_28 - y46_54 - y49_50 - y15_57 - y26_57 - y19_27 - y30_36 - y8_45 - y19_45 - y11_41 - y8_54 - y12_15 - y39_41 - y12_24 - y20_37 - y31_37 - y23_42 - y4_38 - y34_39 - y13_16 - y4_47 - y37_53 - y46_49 - y15_43 - y46_58 - y15_52 - y8_13 - y19_22 - y11_18 - y19_31 - y27_53 - y11_36 - y12_37 - y22_41 - y34_43 - y1_18 - y53_56 - y34_52 - y22_59 - y14_55 - y37_57 - y15_29 - y18_25 - y15_38 - y38_40 - y7_34 - y8_17 - y11_13 - y19_26 - y27_39 - y0_22 - y11_22 - y29_58 - y19_44 - y41_50 - y33_46 - y12_23 - y10_53 - y1_4 - y34_38 - y1_13 - y3_32 - y3_59 - y15_24 - y18_20 - y15_33 - y18_38 - y7_47 - y19_21 - y11_17 - y0_35 - y11_35 - y41_45 - y4_5 - y25_37 - y2_44 - y10_57 - y14_27 - y14_36 - y3_45 - y14_45 - y14_54 - y15_19 - y7_15 - y26_46 - y48_52 - y11_12 - y40_48 - y21_44 - y0_21 - y40_57 - y11_30 - y33_36 - y4_9 - y10_43 - y41_58 - y2_39 - y25_50 - y2_57 - y3_31 - y14_31 - y3_49 - y14_49 - y47_55 - y15_32 - y26_32 - y7_28 - y18_37 - y0_7 - y29_43 - y40_43 - y21_39 - y6_50 - y11_16 - y21_48 - y21_57 - y10_20 - y33_40 - y2_34 - y10_47 - y10_56 - y2_52 - y14_17 - y22_30 - y3_26 - y13_58 - y24_58 - y36_50 - y17_46 - y7_23 - y47_59 - y17_55 - y28_55 - y9_51 - y6_27 - y6_36 - y48_51 - y2_20 - y2_29 - y25_31 - y10_42 - y2_38 - y2_47 - y32_48 - y2_56 - y3_21 - y32_57 - y43_57 - y14_30 - y28_32 - y7_9 - y28_41 - y36_54 - y5_48 - y9_46 - y6_22 - y21_38 - y2_6 - y10_28 - y2_24 - y10_37 - y25_35 - y2_42 - y3_7 - y43_52 - y14_25 - y1_55 - y13_57 - y17_27 - y17_36 - y36_49 - y17_54 - y28_54 - y9_59 - y21_24 - y6_35 - y10_14 - y39_50 - y39_59 - y12_51 - y2_28 - y4_56 - y32_47 - y43_47 - y24_43 - y1_50 - y5_20 - y36_44 - y17_40 - y21_28 - y6_39 - y31_41 - y10_18 - y12_46 - y20_59 - y4_42 - y31_59 - y12_55 - y13_20 - y23_55 - y32_33 - y35_38 - y16_34 - y13_47 - y24_47 - y35_47 - y1_54 - y16_52 - y36_39 - y9_22 - y28_35 - y6_7 - y9_40 - y6_16 - y21_23 - y50_59 - y42_55 - y0_49 - y31_36 - y23_32 - y23_41 - y23_59 - y1_22 - y1_31 - y43_46 - y24_42 - y24_51 - y16_47 - y1_58 - y9_17 - y38_53 - y49_53 - y6_11 - y27_43 - y19_39 - y30_39 - y8_48 - y19_48 - y30_48 - y42_50 - y19_57 - y0_53 - y12_27 - y23_36 - y4_32 - y20_58 - y4_41 - y31_58 - y12_54 - y4_50 - y16_42 - y46_52 - y15_55 - y26_55 - y38_57 - y49_57 - y11_39 - y8_52 - y11_48 - y12_22 - y20_35 - y31_35 - y23_31 - y4_27 - y12_40 - y4_36 - y45_46 - y1_39 - y14_58 - y15_41 - y26_41 - y26_50 - y7_55 - y27_42 - y0_25 - y8_38 - y30_38 - y8_56 - y19_56 - y11_52 - y12_17 - y52_53 - y4_22 - y23_35 - y53_54 - y34_50 - y1_25 - y37_46 - y3_53 - y14_53 - y15_27 - y15_36 - y5_13 - y15_45 - y7_41 - y49_56 - y19_33 - y0_29 - y19_42 - y0_38 - y11_38 - y20_25 - y12_30 - y25_58 - y34_45 - y3_39 - y45_54 - y3_48 - y14_48 - y3_57 - y14_57 - y15_31 - y7_54 - y18_54 - y48_55 - y27_32 - y11_15 - y19_28 - y0_24 - y8_37 - y11_33 - y33_39 - y12_16 - y33_48 - y25_53 - y34_49 - y14_43 - y22_56 - y37_54 - y15_17 - y18_22 - y7_31 - y15_44 - y0_1 - y0_10 - y8_23 - y48_59 - y0_19 - y6_53 - y33_43 - y41_56 - y52_56 - y10_50 - y22_33 - y34_44 - y3_47 - y14_56
 Subject to
C1: x0+x1-y0_1 <=1 
C2: x0+x2 <=1 
C3: x0+x7-y0_7 <=1 
C4: x0+x8 <=1 
C5: x0+x10-y0_10 <=1 
C6: x0+x15 <=1 
C7: x0+x16 <=1 
C8: x0+x19-y0_19 <=1 
C9: x0+x21-y0_21 <=1 
C10: x0+x22-y0_22 <=1 
C11: x0+x23 <=1 
C12: x0+x24-y0_24 <=1 
C13: x0+x25-y0_25 <=1 
C14: x0+x27 <=1 
C15: x0+x28 <=1 
C16: x0+x29-y0_29 <=1 
C17: x0+x30 <=1 
C18: x0+x31 <=1 
C19: x0+x32 <=1 
C20: x0+x33 <=1 
C21: x0+x35-y0_35 <=1 
C22: x0+x37 <=1 
C23: x0+x38-y0_38 <=1 
C24: x0+x39 <=1 
C25: x0+x45 <=1 
C26: x0+x46-y0_46 <=1 
C27: x0+x49-y0_49 <=1 
C28: x0+x53-y0_53 <=1 
C29: x0+x55-y0_55 <=1 
C30: x0+x56-y0_56 <=1 
C31: x0+x58 <=1 
C32: x1+x2 <=1 
C33: x1+x4-y1_4 <=1 
C34: x1+x7 <=1 
C35: x1+x8 <=1 
C36: x1+x9 <=1 
C37: x1+x10 <=1 
C38: x1+x13-y1_13 <=1 
C39: x1+x18-y1_18 <=1 
C40: x1+x19-y1_19 <=1 
C41: x1+x21 <=1 
C42: x1+x22-y1_22 <=1 
C43: x1+x23 <=1 
C44: x1+x25-y1_25 <=1 
C45: x1+x28-y1_28 <=1 
C46: x1+x30 <=1 
C47: x1+x31-y1_31 <=1 
C48: x1+x32 <=1 
C49: x1+x34-y1_34 <=1 
C50: x1+x36 <=1 
C51: x1+x37 <=1 
C52: x1+x39-y1_39 <=1 
C53: x1+x41 <=1 
C54: x1+x42 <=1 
C55: x1+x44 <=1 
C56: x1+x47 <=1 
C57: x1+x49 <=1 
C58: x1+x50-y1_50 <=1 
C59: x1+x52-y1_52 <=1 
C60: x1+x53 <=1 
C61: x1+x54-y1_54 <=1 
C62: x1+x55-y1_55 <=1 
C63: x1+x56-y1_56 <=1 
C64: x1+x57-y1_57 <=1 
C65: x1+x58-y1_58 <=1 
C66: x1+x59 <=1 
C67: x2+x4 <=1 
C68: x2+x5 <=1 
C69: x2+x6-y2_6 <=1 
C70: x2+x7-y2_7 <=1 
C71: x2+x11 <=1 
C72: x2+x12-y2_12 <=1 
C73: x2+x16-y2_16 <=1 
C74: x2+x20-y2_20 <=1 
C75: x2+x21-y2_21 <=1 
C76: x2+x22 <=1 
C77: x2+x23 <=1 
C78: x2+x24-y2_24 <=1 
C79: x2+x25 <=1 
C80: x2+x26-y2_26 <=1 
C81: x2+x28-y2_28 <=1 
C82: x2+x29-y2_29 <=1 
C83: x2+x30 <=1 
C84: x2+x32-y2_32 <=1 
C85: x2+x33 <=1 
C86: x2+x34-y2_34 <=1 
C87: x2+x35-y2_35 <=1 
C88: x2+x36 <=1 
C89: x2+x38-y2_38 <=1 
C90: x2+x39-y2_39 <=1 
C91: x2+x42-y2_42 <=1 
C92: x2+x44-y2_44 <=1 
C93: x2+x45 <=1 
C94: x2+x47-y2_47 <=1 
C95: x2+x49-y2_49 <=1 
C96: x2+x50 <=1 
C97: x2+x51 <=1 
C98: x2+x52-y2_52 <=1 
C99: x2+x53 <=1 
C100: x2+x54 <=1 
C101: x2+x56-y2_56 <=1 
C102: x2+x57-y2_57 <=1 
C103: x2+x59-y2_59 <=1 
C104: x3+x4-y3_4 <=1 
C105: x3+x6 <=1 
C106: x3+x7-y3_7 <=1 
C107: x3+x8 <=1 
C108: x3+x9-y3_9 <=1 
C109: x3+x12 <=1 
C110: x3+x14-y3_14 <=1 
C111: x3+x15 <=1 
C112: x3+x20 <=1 
C113: x3+x21-y3_21 <=1 
C114: x3+x22 <=1 
C115: x3+x23 <=1 
C116: x3+x24 <=1 
C117: x3+x26-y3_26 <=1 
C118: x3+x28 <=1 
C119: x3+x29 <=1 
C120: x3+x31-y3_31 <=1 
C121: x3+x32-y3_32 <=1 
C122: x3+x33 <=1 
C123: x3+x35 <=1 
C124: x3+x36 <=1 
C125: x3+x38 <=1 
C126: x3+x39-y3_39 <=1 
C127: x3+x43 <=1 
C128: x3+x45-y3_45 <=1 
C129: x3+x46 <=1 
C130: x3+x47-y3_47 <=1 
C131: x3+x48-y3_48 <=1 
C132: x3+x49-y3_49 <=1 
C133: x3+x51 <=1 
C134: x3+x52 <=1 
C135: x3+x53-y3_53 <=1 
C136: x3+x55 <=1 
C137: x3+x56 <=1 
C138: x3+x57-y3_57 <=1 
C139: x3+x59-y3_59 <=1 
C140: x4+x5-y4_5 <=1 
C141: x4+x9-y4_9 <=1 
C142: x4+x11 <=1 
C143: x4+x13 <=1 
C144: x4+x14 <=1 
C145: x4+x16 <=1 
C146: x4+x17 <=1 
C147: x4+x18 <=1 
C148: x4+x19 <=1 
C149: x4+x21 <=1 
C150: x4+x22-y4_22 <=1 
C151: x4+x23 <=1 
C152: x4+x24 <=1 
C153: x4+x25-y4_25 <=1 
C154: x4+x26 <=1 
C155: x4+x27-y4_27 <=1 
C156: x4+x30-y4_30 <=1 
C157: x4+x32-y4_32 <=1 
C158: x4+x34-y4_34 <=1 
C159: x4+x35 <=1 
C160: x4+x36-y4_36 <=1 
C161: x4+x38-y4_38 <=1 
C162: x4+x41-y4_41 <=1 
C163: x4+x42-y4_42 <=1 
C164: x4+x43 <=1 
C165: x4+x47-y4_47 <=1 
C166: x4+x48 <=1 
C167: x4+x50-y4_50 <=1 
C168: x4+x55 <=1 
C169: x4+x56-y4_56 <=1 
C170: x4+x57-y4_57 <=1 
C171: x4+x58 <=1 
C172: x5+x10 <=1 
C173: x5+x12 <=1 
C174: x5+x13-y5_13 <=1 
C175: x5+x14 <=1 
C176: x5+x15 <=1 
C177: x5+x19 <=1 
C178: x5+x20-y5_20 <=1 
C179: x5+x22-y5_22 <=1 
C180: x5+x23 <=1 
C181: x5+x24 <=1 
C182: x5+x26-y5_26 <=1 
C183: x5+x27-y5_27 <=1 
C184: x5+x30 <=1 
C185: x5+x31-y5_31 <=1 
C186: x5+x32 <=1 
C187: x5+x36-y5_36 <=1 
C188: x5+x37 <=1 
C189: x5+x39 <=1 
C190: x5+x40 <=1 
C191: x5+x41 <=1 
C192: x5+x43 <=1 
C193: x5+x44-y5_44 <=1 
C194: x5+x45 <=1 
C195: x5+x46 <=1 
C196: x5+x48-y5_48 <=1 
C197: x5+x49-y5_49 <=1 
C198: x5+x51 <=1 
C199: x5+x53 <=1 
C200: x5+x54 <=1 
C201: x5+x55-y5_55 <=1 
C202: x5+x56 <=1 
C203: x5+x58 <=1 
C204: x5+x59-y5_59 <=1 
C205: x6+x7-y6_7 <=1 
C206: x6+x8 <=1 
C207: x6+x10-y6_10 <=1 
C208: x6+x11-y6_11 <=1 
C209: x6+x13 <=1 
C210: x6+x15-y6_15 <=1 
C211: x6+x16-y6_16 <=1 
C212: x6+x17 <=1 
C213: x6+x18 <=1 
C214: x6+x19 <=1 
C215: x6+x22-y6_22 <=1 
C216: x6+x23-y6_23 <=1 
C217: x6+x25 <=1 
C218: x6+x27-y6_27 <=1 
C219: x6+x28-y6_28 <=1 
C220: x6+x31 <=1 
C221: x6+x34-y6_34 <=1 
C222: x6+x35-y6_35 <=1 
C223: x6+x36-y6_36 <=1 
C224: x6+x37-y6_37 <=1 
C225: x6+x38-y6_38 <=1 
C226: x6+x39-y6_39 <=1 
C227: x6+x41 <=1 
C228: x6+x43 <=1 
C229: x6+x45 <=1 
C230: x6+x47 <=1 
C231: x6+x49 <=1 
C232: x6+x50-y6_50 <=1 
C233: x6+x52-y6_52 <=1 
C234: x6+x53-y6_53 <=1 
C235: x6+x54 <=1 
C236: x6+x55 <=1 
C237: x6+x56 <=1 
C238: x7+x9-y7_9 <=1 
C239: x7+x10 <=1 
C240: x7+x11-y7_11 <=1 
C241: x7+x13 <=1 
C242: x7+x14 <=1 
C243: x7+x15-y7_15 <=1 
C244: x7+x16 <=1 
C245: x7+x18 <=1 
C246: x7+x21-y7_21 <=1 
C247: x7+x23-y7_23 <=1 
C248: x7+x24 <=1 
C249: x7+x25 <=1 
C250: x7+x28-y7_28 <=1 
C251: x7+x31-y7_31 <=1 
C252: x7+x32 <=1 
C253: x7+x34-y7_34 <=1 
C254: x7+x35-y7_35 <=1 
C255: x7+x40 <=1 
C256: x7+x41-y7_41 <=1 
C257: x7+x42 <=1 
C258: x7+x45 <=1 
C259: x7+x47-y7_47 <=1 
C260: x7+x48 <=1 
C261: x7+x49 <=1 
C262: x7+x52 <=1 
C263: x7+x54-y7_54 <=1 
C264: x7+x55-y7_55 <=1 
C265: x7+x56 <=1 
C266: x7+x58 <=1 
C267: x7+x59 <=1 
C268: x8+x13-y8_13 <=1 
C269: x8+x14 <=1 
C270: x8+x15 <=1 
C271: x8+x17-y8_17 <=1 
C272: x8+x20 <=1 
C273: x8+x23-y8_23 <=1 
C274: x8+x24 <=1 
C275: x8+x25 <=1 
C276: x8+x26 <=1 
C277: x8+x28 <=1 
C278: x8+x30 <=1 
C279: x8+x34 <=1 
C280: x8+x36 <=1 
C281: x8+x37-y8_37 <=1 
C282: x8+x38-y8_38 <=1 
C283: x8+x44 <=1 
C284: x8+x45-y8_45 <=1 
C285: x8+x46 <=1 
C286: x8+x48-y8_48 <=1 
C287: x8+x52-y8_52 <=1 
C288: x8+x53 <=1 
C289: x8+x54-y8_54 <=1 
C290: x8+x56-y8_56 <=1 
C291: x8+x58 <=1 
C292: x8+x59 <=1 
C293: x9+x11 <=1 
C294: x9+x12 <=1 
C295: x9+x13 <=1 
C296: x9+x15-y9_15 <=1 
C297: x9+x16 <=1 
C298: x9+x17-y9_17 <=1 
C299: x9+x19 <=1 
C300: x9+x20-y9_20 <=1 
C301: x9+x22-y9_22 <=1 
C302: x9+x24 <=1 
C303: x9+x25 <=1 
C304: x9+x27 <=1 
C305: x9+x28 <=1 
C306: x9+x29-y9_29 <=1 
C307: x9+x30-y9_30 <=1 
C308: x9+x32 <=1 
C309: x9+x35 <=1 
C310: x9+x36 <=1 
C311: x9+x40-y9_40 <=1 
C312: x9+x43-y9_43 <=1 
C313: x9+x44 <=1 
C314: x9+x46-y9_46 <=1 
C315: x9+x47-y9_47 <=1 
C316: x9+x48-y9_48 <=1 
C317: x9+x49 <=1 
C318: x9+x50 <=1 
C319: x9+x51-y9_51 <=1 
C320: x9+x52-y9_52 <=1 
C321: x9+x53-y9_53 <=1 
C322: x9+x55 <=1 
C323: x9+x57 <=1 
C324: x9+x58 <=1 
C325: x9+x59-y9_59 <=1 
C326: x10+x11-y10_11 <=1 
C327: x10+x12-y10_12 <=1 
C328: x10+x13 <=1 
C329: x10+x14-y10_14 <=1 
C330: x10+x15 <=1 
C331: x10+x16 <=1 
C332: x10+x18-y10_18 <=1 
C333: x10+x19 <=1 
C334: x10+x20-y10_20 <=1 
C335: x10+x22-y10_22 <=1 
C336: x10+x25-y10_25 <=1 
C337: x10+x27 <=1 
C338: x10+x28-y10_28 <=1 
C339: x10+x29 <=1 
C340: x10+x30-y10_30 <=1 
C341: x10+x34 <=1 
C342: x10+x36 <=1 
C343: x10+x37-y10_37 <=1 
C344: x10+x38 <=1 
C345: x10+x41 <=1 
C346: x10+x42-y10_42 <=1 
C347: x10+x43-y10_43 <=1 
C348: x10+x44-y10_44 <=1 
C349: x10+x47-y10_47 <=1 
C350: x10+x49-y10_49 <=1 
C351: x10+x50-y10_50 <=1 
C352: x10+x51 <=1 
C353: x10+x53-y10_53 <=1 
C354: x10+x56-y10_56 <=1 
C355: x10+x57-y10_57 <=1 
C356: x11+x12-y11_12 <=1 
C357: x11+x13-y11_13 <=1 
C358: x11+x15-y11_15 <=1 
C359: x11+x16-y11_16 <=1 
C360: x11+x17-y11_17 <=1 
C361: x11+x18-y11_18 <=1 
C362: x11+x22-y11_22 <=1 
C363: x11+x24 <=1 
C364: x11+x25 <=1 
C365: x11+x30-y11_30 <=1 
C366: x11+x31 <=1 
C367: x11+x32 <=1 
C368: x11+x33-y11_33 <=1 
C369: x11+x34 <=1 
C370: x11+x35-y11_35 <=1 
C371: x11+x36-y11_36 <=1 
C372: x11+x37 <=1 
C373: x11+x38-y11_38 <=1 
C374: x11+x39-y11_39 <=1 
C375: x11+x40 <=1 
C376: x11+x41-y11_41 <=1 
C377: x11+x46-y11_46 <=1 
C378: x11+x47 <=1 
C379: x11+x48-y11_48 <=1 
C380: x11+x49 <=1 
C381: x11+x50 <=1 
C382: x11+x52-y11_52 <=1 
C383: x11+x56-y11_56 <=1 
C384: x11+x58 <=1 
C385: x12+x15-y12_15 <=1 
C386: x12+x16-y12_16 <=1 
C387: x12+x17-y12_17 <=1 
C388: x12+x18 <=1 
C389: x12+x19 <=1 
C390: x12+x22-y12_22 <=1 
C391: x12+x23-y12_23 <=1 
C392: x12+x24-y12_24 <=1 
C393: x12+x27-y12_27 <=1 
C394: x12+x28 <=1 
C395: x12+x30-y12_30 <=1 
C396: x12+x32 <=1 
C397: x12+x34 <=1 
C398: x12+x35 <=1 
C399: x12+x37-y12_37 <=1 
C400: x12+x38 <=1 
C401: x12+x40-y12_40 <=1 
C402: x12+x43-y12_43 <=1 
C403: x12+x44-y12_44 <=1 
C404: x12+x46-y12_46 <=1 
C405: x12+x47-y12_47 <=1 
C406: x12+x48-y12_48 <=1 
C407: x12+x51-y12_51 <=1 
C408: x12+x52-y12_52 <=1 
C409: x12+x54-y12_54 <=1 
C410: x12+x55-y12_55 <=1 
C411: x12+x59 <=1 
C412: x13+x14 <=1 
C413: x13+x16-y13_16 <=1 
C414: x13+x19 <=1 
C415: x13+x20-y13_20 <=1 
C416: x13+x22 <=1 
C417: x13+x25 <=1 
C418: x13+x30 <=1 
C419: x13+x36 <=1 
C420: x13+x38 <=1 
C421: x13+x40-y13_40 <=1 
C422: x13+x43 <=1 
C423: x13+x46 <=1 
C424: x13+x47-y13_47 <=1 
C425: x13+x49-y13_49 <=1 
C426: x13+x51 <=1 
C427: x13+x52 <=1 
C428: x13+x53 <=1 
C429: x13+x54 <=1 
C430: x13+x55-y13_55 <=1 
C431: x13+x57-y13_57 <=1 
C432: x13+x58-y13_58 <=1 
C433: x14+x15 <=1 
C434: x14+x17-y14_17 <=1 
C435: x14+x18 <=1 
C436: x14+x19 <=1 
C437: x14+x21 <=1 
C438: x14+x22 <=1 
C439: x14+x23-y14_23 <=1 
C440: x14+x24 <=1 
C441: x14+x25-y14_25 <=1 
C442: x14+x27-y14_27 <=1 
C443: x14+x28 <=1 
C444: x14+x29 <=1 
C445: x14+x30-y14_30 <=1 
C446: x14+x31-y14_31 <=1 
C447: x14+x32 <=1 
C448: x14+x33-y14_33 <=1 
C449: x14+x35 <=1 
C450: x14+x36-y14_36 <=1 
C451: x14+x37-y14_37 <=1 
C452: x14+x38 <=1 
C453: x14+x40 <=1 
C454: x14+x41 <=1 
C455: x14+x42 <=1 
C456: x14+x43-y14_43 <=1 
C457: x14+x44 <=1 
C458: x14+x45-y14_45 <=1 
C459: x14+x46 <=1 
C460: x14+x47 <=1 
C461: x14+x48-y14_48 <=1 
C462: x14+x49-y14_49 <=1 
C463: x14+x53-y14_53 <=1 
C464: x14+x54-y14_54 <=1 
C465: x14+x55-y14_55 <=1 
C466: x14+x56-y14_56 <=1 
C467: x14+x57-y14_57 <=1 
C468: x14+x58-y14_58 <=1 
C469: x14+x59 <=1 
C470: x15+x17-y15_17 <=1 
C471: x15+x19-y15_19 <=1 
C472: x15+x20 <=1 
C473: x15+x22 <=1 
C474: x15+x24-y15_24 <=1 
C475: x15+x25-y15_25 <=1 
C476: x15+x27-y15_27 <=1 
C477: x15+x28 <=1 
C478: x15+x29-y15_29 <=1 
C479: x15+x30 <=1 
C480: x15+x31-y15_31 <=1 
C481: x15+x32-y15_32 <=1 
C482: x15+x33-y15_33 <=1 
C483: x15+x35 <=1 
C484: x15+x36-y15_36 <=1 
C485: x15+x38-y15_38 <=1 
C486: x15+x41-y15_41 <=1 
C487: x15+x42 <=1 
C488: x15+x43-y15_43 <=1 
C489: x15+x44-y15_44 <=1 
C490: x15+x45-y15_45 <=1 
C491: x15+x48 <=1 
C492: x15+x49 <=1 
C493: x15+x51 <=1 
C494: x15+x52-y15_52 <=1 
C495: x15+x54 <=1 
C496: x15+x55-y15_55 <=1 
C497: x15+x56 <=1 
C498: x15+x57-y15_57 <=1 
C499: x16+x18-y16_18 <=1 
C500: x16+x19 <=1 
C501: x16+x22-y16_22 <=1 
C502: x16+x23 <=1 
C503: x16+x24 <=1 
C504: x16+x29 <=1 
C505: x16+x31-y16_31 <=1 
C506: x16+x32 <=1 
C507: x16+x33 <=1 
C508: x16+x34-y16_34 <=1 
C509: x16+x35 <=1 
C510: x16+x37 <=1 
C511: x16+x38 <=1 
C512: x16+x39 <=1 
C513: x16+x41-y16_41 <=1 
C514: x16+x42-y16_42 <=1 
C515: x16+x43 <=1 
C516: x16+x45-y16_45 <=1 
C517: x16+x47-y16_47 <=1 
C518: x16+x48 <=1 
C519: x16+x49-y16_49 <=1 
C520: x16+x50 <=1 
C521: x16+x52-y16_52 <=1 
C522: x16+x53 <=1 
C523: x16+x56-y16_56 <=1 
C524: x16+x58 <=1 
C525: x16+x59 <=1 
C526: x17+x19-y17_19 <=1 
C527: x17+x20 <=1 
C528: x17+x21 <=1 
C529: x17+x22 <=1 
C530: x17+x27-y17_27 <=1 
C531: x17+x28 <=1 
C532: x17+x29 <=1 
C533: x17+x31 <=1 
C534: x17+x34 <=1 
C535: x17+x36-y17_36 <=1 
C536: x17+x37 <=1 
C537: x17+x38-y17_38 <=1 
C538: x17+x39 <=1 
C539: x17+x40-y17_40 <=1 
C540: x17+x41 <=1 
C541: x17+x44-y17_44 <=1 
C542: x17+x46-y17_46 <=1 
C543: x17+x47 <=1 
C544: x17+x48 <=1 
C545: x17+x52 <=1 
C546: x17+x54-y17_54 <=1 
C547: x17+x55-y17_55 <=1 
C548: x17+x57 <=1 
C549: x17+x58-y17_58 <=1 
C550: x18+x19 <=1 
C551: x18+x20-y18_20 <=1 
C552: x18+x22-y18_22 <=1 
C553: x18+x23 <=1 
C554: x18+x24 <=1 
C555: x18+x25-y18_25 <=1 
C556: x18+x27 <=1 
C557: x18+x28 <=1 
C558: x18+x32 <=1 
C559: x18+x37-y18_37 <=1 
C560: x18+x38-y18_38 <=1 
C561: x18+x43 <=1 
C562: x18+x47 <=1 
C563: x18+x50 <=1 
C564: x18+x51 <=1 
C565: x18+x52 <=1 
C566: x18+x53 <=1 
C567: x18+x54-y18_54 <=1 
C568: x18+x55 <=1 
C569: x18+x56 <=1 
C570: x18+x58 <=1 
C571: x19+x21-y19_21 <=1 
C572: x19+x22-y19_22 <=1 
C573: x19+x23 <=1 
C574: x19+x24 <=1 
C575: x19+x25 <=1 
C576: x19+x26-y19_26 <=1 
C577: x19+x27-y19_27 <=1 
C578: x19+x28-y19_28 <=1 
C579: x19+x29 <=1 
C580: x19+x31-y19_31 <=1 
C581: x19+x32 <=1 
C582: x19+x33-y19_33 <=1 
C583: x19+x36 <=1 
C584: x19+x37 <=1 
C585: x19+x38 <=1 
C586: x19+x39-y19_39 <=1 
C587: x19+x40 <=1 
C588: x19+x41-y19_41 <=1 
C589: x19+x42-y19_42 <=1 
C590: x19+x43 <=1 
C591: x19+x44-y19_44 <=1 
C592: x19+x45-y19_45 <=1 
C593: x19+x47 <=1 
C594: x19+x48-y19_48 <=1 
C595: x19+x49 <=1 
C596: x19+x50 <=1 
C597: x19+x51 <=1 
C598: x19+x53 <=1 
C599: x19+x54 <=1 
C600: x19+x56-y19_56 <=1 
C601: x19+x57-y19_57 <=1 
C602: x19+x58 <=1 
C603: x19+x59 <=1 
C604: x20+x21 <=1 
C605: x20+x24 <=1 
C606: x20+x25-y20_25 <=1 
C607: x20+x26 <=1 
C608: x20+x28 <=1 
C609: x20+x32 <=1 
C610: x20+x35-y20_35 <=1 
C611: x20+x37-y20_37 <=1 
C612: x20+x38-y20_38 <=1 
C613: x20+x39-y20_39 <=1 
C614: x20+x42 <=1 
C615: x20+x43-y20_43 <=1 
C616: x20+x44 <=1 
C617: x20+x46 <=1 
C618: x20+x47-y20_47 <=1 
C619: x20+x48 <=1 
C620: x20+x49 <=1 
C621: x20+x51-y20_51 <=1 
C622: x20+x52-y20_52 <=1 
C623: x20+x53-y20_53 <=1 
C624: x20+x56 <=1 
C625: x20+x58-y20_58 <=1 
C626: x20+x59-y20_59 <=1 
C627: x21+x23-y21_23 <=1 
C628: x21+x24-y21_24 <=1 
C629: x21+x27 <=1 
C630: x21+x28-y21_28 <=1 
C631: x21+x30-y21_30 <=1 
C632: x21+x31 <=1 
C633: x21+x32-y21_32 <=1 
C634: x21+x35-y21_35 <=1 
C635: x21+x37 <=1 
C636: x21+x38-y21_38 <=1 
C637: x21+x39-y21_39 <=1 
C638: x21+x40-y21_40 <=1 
C639: x21+x42 <=1 
C640: x21+x43 <=1 
C641: x21+x44-y21_44 <=1 
C642: x21+x45-y21_45 <=1 
C643: x21+x46-y21_46 <=1 
C644: x21+x48-y21_48 <=1 
C645: x21+x49-y21_49 <=1 
C646: x21+x50 <=1 
C647: x21+x51 <=1 
C648: x21+x52 <=1 
C649: x21+x53 <=1 
C650: x21+x55-y21_55 <=1 
C651: x21+x57-y21_57 <=1 
C652: x21+x59 <=1 
C653: x22+x23 <=1 
C654: x22+x24 <=1 
C655: x22+x26 <=1 
C656: x22+x27-y22_27 <=1 
C657: x22+x28 <=1 
C658: x22+x30-y22_30 <=1 
C659: x22+x32-y22_32 <=1 
C660: x22+x33-y22_33 <=1 
C661: x22+x35 <=1 
C662: x22+x37-y22_37 <=1 
C663: x22+x40 <=1 
C664: x22+x41-y22_41 <=1 
C665: x22+x44 <=1 
C666: x22+x47 <=1 
C667: x22+x50 <=1 
C668: x22+x54 <=1 
C669: x22+x55 <=1 
C670: x22+x56-y22_56 <=1 
C671: x22+x59-y22_59 <=1 
C672: x23+x24 <=1 
C673: x23+x25 <=1 
C674: x23+x27 <=1 
C675: x23+x28 <=1 
C676: x23+x30 <=1 
C677: x23+x31-y23_31 <=1 
C678: x23+x32-y23_32 <=1 
C679: x23+x33 <=1 
C680: x23+x34 <=1 
C681: x23+x35-y23_35 <=1 
C682: x23+x36-y23_36 <=1 
C683: x23+x37 <=1 
C684: x23+x39 <=1 
C685: x23+x40 <=1 
C686: x23+x41-y23_41 <=1 
C687: x23+x42-y23_42 <=1 
C688: x23+x43 <=1 
C689: x23+x44 <=1 
C690: x23+x47 <=1 
C691: x23+x49 <=1 
C692: x23+x50 <=1 
C693: x23+x51 <=1 
C694: x23+x52 <=1 
C695: x23+x53 <=1 
C696: x23+x54 <=1 
C697: x23+x55-y23_55 <=1 
C698: x23+x56-y23_56 <=1 
C699: x23+x57-y23_57 <=1 
C700: x23+x58-y23_58 <=1 
C701: x23+x59-y23_59 <=1 
C702: x24+x25 <=1 
C703: x24+x26 <=1 
C704: x24+x27-y24_27 <=1 
C705: x24+x28 <=1 
C706: x24+x33 <=1 
C707: x24+x35 <=1 
C708: x24+x37 <=1 
C709: x24+x40 <=1 
C710: x24+x42-y24_42 <=1 
C711: x24+x43-y24_43 <=1 
C712: x24+x44-y24_44 <=1 
C713: x24+x45 <=1 
C714: x24+x46-y24_46 <=1 
C715: x24+x47-y24_47 <=1 
C716: x24+x49 <=1 
C717: x24+x51-y24_51 <=1 
C718: x24+x53 <=1 
C719: x24+x55-y24_55 <=1 
C720: x24+x57 <=1 
C721: x24+x58-y24_58 <=1 
C722: x24+x59 <=1 
C723: x25+x27 <=1 
C724: x25+x28 <=1 
C725: x25+x30 <=1 
C726: x25+x31-y25_31 <=1 
C727: x25+x32 <=1 
C728: x25+x35-y25_35 <=1 
C729: x25+x37-y25_37 <=1 
C730: x25+x38-y25_38 <=1 
C731: x25+x39 <=1 
C732: x25+x41 <=1 
C733: x25+x47-y25_47 <=1 
C734: x25+x48 <=1 
C735: x25+x50-y25_50 <=1 
C736: x25+x52-y25_52 <=1 
C737: x25+x53-y25_53 <=1 
C738: x25+x54 <=1 
C739: x25+x55 <=1 
C740: x25+x56 <=1 
C741: x25+x57 <=1 
C742: x25+x58-y25_58 <=1 
C743: x26+x27 <=1 
C744: x26+x28 <=1 
C745: x26+x29 <=1 
C746: x26+x30-y26_30 <=1 
C747: x26+x31 <=1 
C748: x26+x32-y26_32 <=1 
C749: x26+x33 <=1 
C750: x26+x35 <=1 
C751: x26+x37 <=1 
C752: x26+x39-y26_39 <=1 
C753: x26+x41-y26_41 <=1 
C754: x26+x46-y26_46 <=1 
C755: x26+x47 <=1 
C756: x26+x50-y26_50 <=1 
C757: x26+x51 <=1 
C758: x26+x55-y26_55 <=1 
C759: x26+x56 <=1 
C760: x26+x57-y26_57 <=1 
C761: x26+x59 <=1 
C762: x27+x28 <=1 
C763: x27+x32-y27_32 <=1 
C764: x27+x33 <=1 
C765: x27+x34 <=1 
C766: x27+x36-y27_36 <=1 
C767: x27+x38 <=1 
C768: x27+x39-y27_39 <=1 
C769: x27+x42-y27_42 <=1 
C770: x27+x43-y27_43 <=1 
C771: x27+x44 <=1 
C772: x27+x45-y27_45 <=1 
C773: x27+x48 <=1 
C774: x27+x49 <=1 
C775: x27+x50 <=1 
C776: x27+x51 <=1 
C777: x27+x52 <=1 
C778: x27+x53-y27_53 <=1 
C779: x27+x55 <=1 
C780: x27+x58 <=1 
C781: x27+x59-y27_59 <=1 
C782: x28+x29-y28_29 <=1 
C783: x28+x32-y28_32 <=1 
C784: x28+x33 <=1 
C785: x28+x34-y28_34 <=1 
C786: x28+x35-y28_35 <=1 
C787: x28+x37 <=1 
C788: x28+x38-y28_38 <=1 
C789: x28+x39-y28_39 <=1 
C790: x28+x40 <=1 
C791: x28+x41-y28_41 <=1 
C792: x28+x42 <=1 
C793: x28+x43-y28_43 <=1 
C794: x28+x47-y28_47 <=1 
C795: x28+x49 <=1 
C796: x28+x50 <=1 
C797: x28+x53 <=1 
C798: x28+x54-y28_54 <=1 
C799: x28+x55-y28_55 <=1 
C800: x28+x57 <=1 
C801: x28+x58 <=1 
C802: x28+x59 <=1 
C803: x29+x30-y29_30 <=1 
C804: x29+x32-y29_32 <=1 
C805: x29+x36-y29_36 <=1 
C806: x29+x39 <=1 
C807: x29+x42 <=1 
C808: x29+x43-y29_43 <=1 
C809: x29+x44 <=1 
C810: x29+x45-y29_45 <=1 
C811: x29+x47 <=1 
C812: x29+x52 <=1 
C813: x29+x54 <=1 
C814: x29+x55 <=1 
C815: x29+x56 <=1 
C816: x29+x58-y29_58 <=1 
C817: x30+x34 <=1 
C818: x30+x36-y30_36 <=1 
C819: x30+x37 <=1 
C820: x30+x38-y30_38 <=1 
C821: x30+x39-y30_39 <=1 
C822: x30+x40 <=1 
C823: x30+x42 <=1 
C824: x30+x44 <=1 
C825: x30+x48-y30_48 <=1 
C826: x30+x52 <=1 
C827: x30+x53 <=1 
C828: x30+x55 <=1 
C829: x30+x58 <=1 
C830: x31+x35-y31_35 <=1 
C831: x31+x36-y31_36 <=1 
C832: x31+x37-y31_37 <=1 
C833: x31+x38-y31_38 <=1 
C834: x31+x41-y31_41 <=1 
C835: x31+x42 <=1 
C836: x31+x43 <=1 
C837: x31+x45 <=1 
C838: x31+x48 <=1 
C839: x31+x49 <=1 
C840: x31+x53 <=1 
C841: x31+x57 <=1 
C842: x31+x58-y31_58 <=1 
C843: x31+x59-y31_59 <=1 
C844: x32+x33-y32_33 <=1 
C845: x32+x38 <=1 
C846: x32+x41 <=1 
C847: x32+x44-y32_44 <=1 
C848: x32+x47-y32_47 <=1 
C849: x32+x48-y32_48 <=1 
C850: x32+x49 <=1 
C851: x32+x50-y32_50 <=1 
C852: x32+x52 <=1 
C853: x32+x53 <=1 
C854: x32+x54 <=1 
C855: x32+x55 <=1 
C856: x32+x56 <=1 
C857: x32+x57-y32_57 <=1 
C858: x32+x58 <=1 
C859: x32+x59-y32_59 <=1 
C860: x33+x36-y33_36 <=1 
C861: x33+x38-y33_38 <=1 
C862: x33+x39-y33_39 <=1 
C863: x33+x40-y33_40 <=1 
C864: x33+x43-y33_43 <=1 
C865: x33+x45 <=1 
C866: x33+x46-y33_46 <=1 
C867: x33+x48-y33_48 <=1 
C868: x33+x49 <=1 
C869: x33+x53 <=1 
C870: x33+x55 <=1 
C871: x33+x56 <=1 
C872: x33+x57 <=1 
C873: x33+x58 <=1 
C874: x34+x38-y34_38 <=1 
C875: x34+x39-y34_39 <=1 
C876: x34+x43-y34_43 <=1 
C877: x34+x44-y34_44 <=1 
C878: x34+x45-y34_45 <=1 
C879: x34+x47 <=1 
C880: x34+x48 <=1 
C881: x34+x49-y34_49 <=1 
C882: x34+x50-y34_50 <=1 
C883: x34+x51 <=1 
C884: x34+x52-y34_52 <=1 
C885: x34+x53 <=1 
C886: x34+x54 <=1 
C887: x34+x55 <=1 
C888: x34+x58-y34_58 <=1 
C889: x35+x36 <=1 
C890: x35+x37 <=1 
C891: x35+x38-y35_38 <=1 
C892: x35+x40-y35_40 <=1 
C893: x35+x44 <=1 
C894: x35+x47-y35_47 <=1 
C895: x35+x52 <=1 
C896: x35+x53 <=1 
C897: x35+x54-y35_54 <=1 
C898: x35+x57 <=1 
C899: x36+x38-y36_38 <=1 
C900: x36+x39-y36_39 <=1 
C901: x36+x42-y36_42 <=1 
C902: x36+x43-y36_43 <=1 
C903: x36+x44-y36_44 <=1 
C904: x36+x47 <=1 
C905: x36+x48-y36_48 <=1 
C906: x36+x49-y36_49 <=1 
C907: x36+x50-y36_50 <=1 
C908: x36+x51 <=1 
C909: x36+x52-y36_52 <=1 
C910: x36+x53 <=1 
C911: x36+x54-y36_54 <=1 
C912: x36+x57 <=1 
C913: x36+x58 <=1 
C914: x37+x38 <=1 
C915: x37+x40 <=1 
C916: x37+x41 <=1 
C917: x37+x42 <=1 
C918: x37+x44 <=1 
C919: x37+x45 <=1 
C920: x37+x46-y37_46 <=1 
C921: x37+x47 <=1 
C922: x37+x48 <=1 
C923: x37+x53-y37_53 <=1 
C924: x37+x54-y37_54 <=1 
C925: x37+x56 <=1 
C926: x37+x57-y37_57 <=1 
C927: x37+x58 <=1 
C928: x38+x39 <=1 
C929: x38+x40-y38_40 <=1 
C930: x38+x43 <=1 
C931: x38+x46 <=1 
C932: x38+x47 <=1 
C933: x38+x48 <=1 
C934: x38+x49 <=1 
C935: x38+x51-y38_51 <=1 
C936: x38+x52 <=1 
C937: x38+x53-y38_53 <=1 
C938: x38+x54 <=1 
C939: x38+x55 <=1 
C940: x38+x56 <=1 
C941: x38+x57-y38_57 <=1 
C942: x38+x58 <=1 
C943: x39+x40 <=1 
C944: x39+x41-y39_41 <=1 
C945: x39+x43-y39_43 <=1 
C946: x39+x44 <=1 
C947: x39+x47 <=1 
C948: x39+x49 <=1 
C949: x39+x50-y39_50 <=1 
C950: x39+x51-y39_51 <=1 
C951: x39+x52 <=1 
C952: x39+x56 <=1 
C953: x39+x59-y39_59 <=1 
C954: x40+x41-y40_41 <=1 
C955: x40+x43-y40_43 <=1 
C956: x40+x44-y40_44 <=1 
C957: x40+x45-y40_45 <=1 
C958: x40+x48-y40_48 <=1 
C959: x40+x49 <=1 
C960: x40+x50 <=1 
C961: x40+x51 <=1 
C962: x40+x52 <=1 
C963: x40+x53 <=1 
C964: x40+x54 <=1 
C965: x40+x57-y40_57 <=1 
C966: x40+x58-y40_58 <=1 
C967: x40+x59-y40_59 <=1 
C968: x41+x42-y41_42 <=1 
C969: x41+x44 <=1 
C970: x41+x45-y41_45 <=1 
C971: x41+x46 <=1 
C972: x41+x50-y41_50 <=1 
C973: x41+x51 <=1 
C974: x41+x56-y41_56 <=1 
C975: x41+x57 <=1 
C976: x41+x58-y41_58 <=1 
C977: x42+x43 <=1 
C978: x42+x44-y42_44 <=1 
C979: x42+x46 <=1 
C980: x42+x48-y42_48 <=1 
C981: x42+x50-y42_50 <=1 
C982: x42+x53 <=1 
C983: x42+x55-y42_55 <=1 
C984: x42+x56 <=1 
C985: x42+x57 <=1 
C986: x42+x59 <=1 
C987: x43+x44-y43_44 <=1 
C988: x43+x46-y43_46 <=1 
C989: x43+x47-y43_47 <=1 
C990: x43+x48 <=1 
C991: x43+x52-y43_52 <=1 
C992: x43+x54 <=1 
C993: x43+x56 <=1 
C994: x43+x57-y43_57 <=1 
C995: x43+x59 <=1 
C996: x44+x47 <=1 
C997: x44+x49 <=1 
C998: x44+x50 <=1 
C999: x44+x51 <=1 
C1000: x44+x53 <=1 
C1001: x44+x56-y44_56 <=1 
C1002: x45+x46-y45_46 <=1 
C1003: x45+x47 <=1 
C1004: x45+x51 <=1 
C1005: x45+x53-y45_53 <=1 
C1006: x45+x54-y45_54 <=1 
C1007: x45+x55 <=1 
C1008: x45+x56 <=1 
C1009: x45+x57 <=1 
C1010: x45+x58 <=1 
C1011: x46+x48 <=1 
C1012: x46+x49-y46_49 <=1 
C1013: x46+x52-y46_52 <=1 
C1014: x46+x54-y46_54 <=1 
C1015: x46+x55 <=1 
C1016: x46+x56 <=1 
C1017: x46+x57 <=1 
C1018: x46+x58-y46_58 <=1 
C1019: x47+x48 <=1 
C1020: x47+x49 <=1 
C1021: x47+x51-y47_51 <=1 
C1022: x47+x52-y47_52 <=1 
C1023: x47+x53 <=1 
C1024: x47+x54 <=1 
C1025: x47+x55-y47_55 <=1 
C1026: x47+x56-y47_56 <=1 
C1027: x47+x57-y47_57 <=1 
C1028: x47+x59-y47_59 <=1 
C1029: x48+x49-y48_49 <=1 
C1030: x48+x51-y48_51 <=1 
C1031: x48+x52-y48_52 <=1 
C1032: x48+x53-y48_53 <=1 
C1033: x48+x55-y48_55 <=1 
C1034: x48+x57 <=1 
C1035: x48+x58 <=1 
C1036: x48+x59-y48_59 <=1 
C1037: x49+x50-y49_50 <=1 
C1038: x49+x53-y49_53 <=1 
C1039: x49+x56-y49_56 <=1 
C1040: x49+x57-y49_57 <=1 
C1041: x50+x52 <=1 
C1042: x50+x53 <=1 
C1043: x50+x54 <=1 
C1044: x50+x56 <=1 
C1045: x50+x59-y50_59 <=1 
C1046: x51+x53 <=1 
C1047: x51+x58-y51_58 <=1 
C1048: x52+x53-y52_53 <=1 
C1049: x52+x55 <=1 
C1050: x52+x56-y52_56 <=1 
C1051: x52+x58 <=1 
C1052: x53+x54-y53_54 <=1 
C1053: x53+x56-y53_56 <=1 
C1054: x53+x58 <=1 
C1055: x54+x55-y54_55 <=1 
C1056: x54+x56 <=1 
C1057: x54+x57 <=1 
C1058: x54+x58 <=1 
C1059: x55+x56 <=1 
C1060: x56+x57 <=1 
C1061: x56+x58 <=1 
C1062: x56+x59 <=1 
C1063: x57+x59-y57_59 <=1 

binary
x0
x1
x2
x3
x4
x5
x6
x7
x8
x9
x10
x11
x12
x13
x14
x15
x16
x17
x18
x19
x20
x21
x22
x23
x24
x25
x26
x27
x28
x29
x30
x31
x32
x33
x34
x35
x36
x37
x38
x39
x40
x41
x42
x43
x44
x45
x46
x47
x48
x49
x50
x51
x52
x53
x54
x55
x56
x57
x58
x59
