problem_generation/data/GISP/train/er_n=60_m=1063_p=0.60_SET2_setparam=100.00_alpha=0.50_778.sol
objective value:                                 1181
x15                                                 1 	(obj:100)
x16                                                 1 	(obj:100)
x18                                                 1 	(obj:100)
x21                                                 1 	(obj:100)
x25                                                 1 	(obj:100)
x26                                                 1 	(obj:100)
x34                                                 1 	(obj:100)
x36                                                 1 	(obj:100)
x40                                                 1 	(obj:100)
x44                                                 1 	(obj:100)
x45                                                 1 	(obj:100)
x46                                                 1 	(obj:100)
y21_46                                              1 	(obj:-1)
y15_25                                              1 	(obj:-1)
y40_45                                              1 	(obj:-1)
y21_45                                              1 	(obj:-1)
y40_44                                              1 	(obj:-1)
y21_40                                              1 	(obj:-1)
y16_18                                              1 	(obj:-1)
y16_45                                              1 	(obj:-1)
y18_25                                              1 	(obj:-1)
y26_46                                              1 	(obj:-1)
y21_44                                              1 	(obj:-1)
y36_44                                              1 	(obj:-1)
y16_34                                              1 	(obj:-1)
y45_46                                              1 	(obj:-1)
y15_36                                              1 	(obj:-1)
y15_45                                              1 	(obj:-1)
y34_45                                              1 	(obj:-1)
y15_44                                              1 	(obj:-1)
y34_44                                              1 	(obj:-1)
